(set-info :smt-lib-version 2.6)
(set-logic QF_LRA)
(set-info :source |
Fully parameterized specification and verification of a synchronizer   
circuit modeling metastability at various levels of refinement.     
A paper describing this specification, to be published in Designing     
Correct Circuits (DCC), 2006, is available from the authors.            

Geoffrey Brown, Indiana University <geobrown@cs.indiana.edu>
Lee Pike, Galois Connections, Inc. <leepike@galois.com>

Translated into CVC format by Leonardo de Moura.

This benchmark was automatically translated into SMT-LIB format from
CVC format using CVC Lite

|)
(set-info :category "industrial")
(set-info :status sat)
(declare-fun x_0 () Bool)
(declare-fun x_1 () Bool)
(declare-fun x_2 () Real)
(declare-fun x_3 () Real)
(declare-fun x_4 () Bool)
(declare-fun x_5 () Bool)
(declare-fun x_6 () Real)
(declare-fun x_7 () Real)
(declare-fun x_8 () Bool)
(declare-fun x_9 () Bool)
(declare-fun x_10 () Real)
(declare-fun x_11 () Real)
(declare-fun x_12 () Bool)
(declare-fun x_13 () Bool)
(declare-fun x_14 () Real)
(declare-fun x_15 () Real)
(declare-fun x_16 () Bool)
(declare-fun x_17 () Bool)
(declare-fun x_18 () Real)
(declare-fun x_19 () Real)
(declare-fun x_20 () Bool)
(declare-fun x_21 () Bool)
(declare-fun x_22 () Real)
(declare-fun x_23 () Real)
(declare-fun x_24 () Bool)
(declare-fun x_25 () Bool)
(declare-fun x_26 () Real)
(declare-fun x_27 () Real)
(declare-fun x_28 () Bool)
(declare-fun x_29 () Bool)
(declare-fun x_30 () Real)
(declare-fun x_31 () Real)
(declare-fun x_32 () Bool)
(declare-fun x_33 () Bool)
(declare-fun x_34 () Real)
(declare-fun x_35 () Real)
(declare-fun x_36 () Bool)
(declare-fun x_37 () Bool)
(declare-fun x_38 () Real)
(declare-fun x_39 () Real)
(declare-fun x_40 () Real)
(declare-fun x_41 () Real)
(declare-fun x_42 () Real)
(declare-fun x_43 () Real)
(declare-fun x_44 () Real)
(declare-fun x_45 () Real)
(declare-fun x_46 () Real)
(declare-fun x_47 () Real)
(declare-fun x_48 () Real)
(declare-fun x_49 () Real)
(declare-fun x_50 () Real)
(declare-fun x_51 () Real)
(declare-fun x_52 () Real)
(declare-fun x_53 () Real)
(declare-fun x_54 () Real)
(declare-fun x_55 () Real)
(declare-fun x_56 () Real)
(declare-fun x_57 () Real)
(declare-fun x_58 () Real)
(declare-fun x_59 () Real)
(declare-fun x_60 () Real)
(declare-fun x_61 () Real)
(declare-fun x_62 () Real)
(declare-fun x_63 () Real)
(declare-fun x_64 () Real)
(declare-fun x_65 () Real)
(declare-fun x_66 () Real)
(declare-fun x_67 () Real)
(declare-fun x_68 () Real)
(declare-fun x_69 () Real)
(declare-fun x_70 () Real)
(declare-fun x_71 () Real)
(declare-fun x_72 () Real)
(declare-fun x_73 () Real)
(declare-fun x_74 () Real)
(declare-fun x_75 () Real)
(declare-fun x_76 () Real)
(declare-fun x_77 () Real)
(declare-fun x_78 () Real)
(declare-fun x_79 () Real)
(declare-fun x_80 () Real)
(declare-fun x_81 () Real)
(declare-fun x_82 () Real)
(declare-fun x_83 () Real)
(declare-fun x_84 () Real)
(declare-fun x_85 () Real)
(declare-fun x_86 () Real)
(declare-fun x_87 () Real)
(declare-fun x_88 () Real)
(declare-fun x_89 () Real)
(declare-fun x_90 () Real)
(declare-fun x_91 () Real)
(declare-fun x_92 () Real)
(declare-fun x_93 () Real)
(declare-fun x_94 () Real)
(declare-fun x_95 () Real)
(declare-fun x_96 () Real)
(declare-fun x_97 () Real)
(declare-fun x_98 () Real)
(declare-fun x_99 () Bool)
(declare-fun x_100 () Bool)
(declare-fun x_101 () Real)
(declare-fun x_102 () Bool)
(declare-fun x_103 () Bool)
(declare-fun x_104 () Bool)
(declare-fun x_105 () Bool)
(declare-fun x_106 () Bool)
(declare-fun x_107 () Real)
(declare-fun x_108 () Bool)
(declare-fun x_109 () Real)
(declare-fun x_110 () Real)
(declare-fun x_111 () Real)
(declare-fun x_112 () Bool)
(declare-fun x_113 () Real)
(declare-fun x_114 () Bool)
(declare-fun x_115 () Bool)
(declare-fun x_116 () Real)
(declare-fun x_117 () Bool)
(declare-fun x_118 () Real)
(declare-fun x_119 () Real)
(declare-fun x_120 () Real)
(declare-fun x_121 () Bool)
(declare-fun x_122 () Real)
(declare-fun x_123 () Bool)
(declare-fun x_124 () Bool)
(declare-fun x_125 () Real)
(declare-fun x_126 () Bool)
(declare-fun x_127 () Real)
(declare-fun x_128 () Real)
(declare-fun x_129 () Real)
(declare-fun x_130 () Bool)
(declare-fun x_131 () Real)
(declare-fun x_132 () Bool)
(declare-fun x_133 () Bool)
(declare-fun x_134 () Real)
(declare-fun x_135 () Bool)
(declare-fun x_136 () Real)
(declare-fun x_137 () Real)
(declare-fun x_138 () Real)
(declare-fun x_139 () Bool)
(declare-fun x_140 () Real)
(declare-fun x_141 () Bool)
(declare-fun x_142 () Bool)
(declare-fun x_143 () Real)
(declare-fun x_144 () Bool)
(declare-fun x_145 () Real)
(declare-fun x_146 () Real)
(declare-fun x_147 () Real)
(declare-fun x_148 () Bool)
(declare-fun x_149 () Real)
(declare-fun x_150 () Bool)
(declare-fun x_151 () Bool)
(declare-fun x_152 () Real)
(declare-fun x_153 () Bool)
(declare-fun x_154 () Real)
(declare-fun x_155 () Real)
(declare-fun x_156 () Real)
(declare-fun x_157 () Bool)
(declare-fun x_158 () Real)
(declare-fun x_159 () Bool)
(declare-fun x_160 () Bool)
(declare-fun x_161 () Real)
(declare-fun x_162 () Bool)
(declare-fun x_163 () Real)
(declare-fun x_164 () Real)
(declare-fun x_165 () Real)
(declare-fun x_166 () Bool)
(declare-fun x_167 () Real)
(declare-fun x_168 () Bool)
(declare-fun x_169 () Bool)
(declare-fun x_170 () Real)
(declare-fun x_171 () Bool)
(declare-fun x_172 () Real)
(declare-fun x_173 () Real)
(declare-fun x_174 () Real)
(declare-fun x_175 () Bool)
(declare-fun x_176 () Real)
(declare-fun x_177 () Bool)
(declare-fun x_178 () Bool)
(declare-fun x_179 () Real)
(declare-fun x_180 () Bool)
(declare-fun x_181 () Real)
(declare-fun x_182 () Real)
(declare-fun x_183 () Real)
(declare-fun x_184 () Bool)
(declare-fun x_185 () Real)
(declare-fun x_186 () Real)
(declare-fun x_187 () Bool)
(declare-fun x_188 () Bool)
(declare-fun x_189 () Bool)
(declare-fun x_190 () Bool)
(declare-fun x_191 () Real)
(declare-fun x_192 () Bool)
(declare-fun x_193 () Real)
(declare-fun x_194 () Real)
(declare-fun x_195 () Real)
(declare-fun x_196 () Real)
(assert (let ((?v_20 (ite (<= x_40 x_41) x_40 x_41)) (?v_18 (ite (<= x_49 x_50) x_49 x_50)) (?v_16 (ite (<= x_54 x_55) x_54 x_55)) (?v_14 (ite (<= x_59 x_60) x_59 x_60)) (?v_12 (ite (<= x_64 x_65) x_64 x_65)) (?v_10 (ite (<= x_69 x_70) x_69 x_70)) (?v_8 (ite (<= x_74 x_75) x_74 x_75)) (?v_6 (ite (<= x_79 x_80) x_79 x_80)) (?v_4 (ite (<= x_84 x_85) x_84 x_85)) (?v_2 (ite (<= x_89 x_90) x_89 x_90)) (?v_0 (ite (<= x_94 x_95) x_94 x_95)) (?v_153 (= x_51 x_45)) (?v_155 (= x_41 x_50)) (?v_157 (= x_53 x_47)) (?v_151 (= x_40 x_49))) (let ((?v_158 (not ?v_151)) (?v_161 (= x_52 x_46)) (?v_148 (= x_99 x_100)) (?v_149 (= x_7 x_3)) (?v_152 (ite (<= x_41 x_40) x_41 x_40)) (?v_139 (= x_56 x_51)) (?v_141 (= x_50 x_55)) (?v_143 (= x_58 x_53)) (?v_137 (= x_49 x_54))) (let ((?v_144 (not ?v_137)) (?v_147 (= x_57 x_52)) (?v_134 (= x_112 x_99)) (?v_135 (= x_11 x_7)) (?v_138 (ite (<= x_50 x_49) x_50 x_49)) (?v_125 (= x_61 x_56)) (?v_127 (= x_55 x_60)) (?v_129 (= x_63 x_58)) (?v_123 (= x_54 x_59))) (let ((?v_130 (not ?v_123)) (?v_133 (= x_62 x_57)) (?v_120 (= x_121 x_112)) (?v_121 (= x_15 x_11)) (?v_124 (ite (<= x_55 x_54) x_55 x_54)) (?v_111 (= x_66 x_61)) (?v_113 (= x_60 x_65)) (?v_115 (= x_68 x_63)) (?v_109 (= x_59 x_64))) (let ((?v_116 (not ?v_109)) (?v_119 (= x_67 x_62)) (?v_106 (= x_130 x_121)) (?v_107 (= x_19 x_15)) (?v_110 (ite (<= x_60 x_59) x_60 x_59)) (?v_97 (= x_71 x_66)) (?v_99 (= x_65 x_70)) (?v_101 (= x_73 x_68)) (?v_95 (= x_64 x_69))) (let ((?v_102 (not ?v_95)) (?v_105 (= x_72 x_67)) (?v_92 (= x_139 x_130)) (?v_93 (= x_23 x_19)) (?v_96 (ite (<= x_65 x_64) x_65 x_64)) (?v_83 (= x_76 x_71)) (?v_85 (= x_70 x_75)) (?v_87 (= x_78 x_73)) (?v_81 (= x_69 x_74))) (let ((?v_88 (not ?v_81)) (?v_91 (= x_77 x_72)) (?v_78 (= x_148 x_139)) (?v_79 (= x_27 x_23)) (?v_82 (ite (<= x_70 x_69) x_70 x_69)) (?v_69 (= x_81 x_76)) (?v_71 (= x_75 x_80)) (?v_73 (= x_83 x_78)) (?v_67 (= x_74 x_79))) (let ((?v_74 (not ?v_67)) (?v_77 (= x_82 x_77)) (?v_64 (= x_157 x_148)) (?v_65 (= x_31 x_27)) (?v_68 (ite (<= x_75 x_74) x_75 x_74)) (?v_55 (= x_86 x_81)) (?v_57 (= x_80 x_85)) (?v_59 (= x_88 x_83)) (?v_53 (= x_79 x_84))) (let ((?v_60 (not ?v_53)) (?v_63 (= x_87 x_82)) (?v_50 (= x_166 x_157)) (?v_51 (= x_35 x_31)) (?v_54 (ite (<= x_80 x_79) x_80 x_79)) (?v_41 (= x_91 x_86)) (?v_43 (= x_85 x_90)) (?v_45 (= x_93 x_88)) (?v_39 (= x_84 x_89))) (let ((?v_46 (not ?v_39)) (?v_49 (= x_92 x_87)) (?v_36 (= x_175 x_166)) (?v_37 (= x_39 x_35)) (?v_40 (ite (<= x_85 x_84) x_85 x_84)) (?v_27 (= x_96 x_91)) (?v_29 (= x_90 x_95)) (?v_31 (= x_98 x_93)) (?v_25 (= x_89 x_94))) (let ((?v_32 (not ?v_25)) (?v_35 (= x_97 x_92)) (?v_22 (= x_184 x_175)) (?v_23 (= x_185 x_39)) (?v_26 (ite (<= x_90 x_89) x_90 x_89)) (?v_24 (= x_188 x_37)) (?v_34 (= x_39 x_185)) (?v_38 (= x_37 x_33)) (?v_48 (= x_35 x_39)) (?v_52 (= x_33 x_29)) (?v_62 (= x_31 x_35)) (?v_66 (= x_29 x_25)) (?v_76 (= x_27 x_31)) (?v_80 (= x_25 x_21)) (?v_90 (= x_23 x_27)) (?v_94 (= x_21 x_17)) (?v_104 (= x_19 x_23)) (?v_108 (= x_17 x_13)) (?v_118 (= x_15 x_19)) (?v_122 (= x_13 x_9)) (?v_132 (= x_11 x_15)) (?v_136 (= x_9 x_5)) (?v_146 (= x_7 x_11)) (?v_150 (= x_5 x_1)) (?v_160 (= x_3 x_7)) (?v_28 (<= x_93 ?v_2)) (?v_42 (<= x_88 ?v_4)) (?v_56 (<= x_83 ?v_6)) (?v_70 (<= x_78 ?v_8)) (?v_84 (<= x_73 ?v_10)) (?v_98 (<= x_68 ?v_12)) (?v_112 (<= x_63 ?v_14)) (?v_126 (<= x_58 ?v_16)) (?v_140 (<= x_53 ?v_18)) (?v_154 (<= x_47 ?v_20)) (?v_1 (+ ?v_0 x_44)) (?v_30 (+ ?v_2 x_48)) (?v_3 (+ ?v_2 x_44)) (?v_44 (+ ?v_4 x_48)) (?v_5 (+ ?v_4 x_44)) (?v_58 (+ ?v_6 x_48)) (?v_7 (+ ?v_6 x_44)) (?v_72 (+ ?v_8 x_48)) (?v_9 (+ ?v_8 x_44)) (?v_86 (+ ?v_10 x_48)) (?v_11 (+ ?v_10 x_44)) (?v_100 (+ ?v_12 x_48)) (?v_13 (+ ?v_12 x_44)) (?v_114 (+ ?v_14 x_48)) (?v_15 (+ ?v_14 x_44)) (?v_128 (+ ?v_16 x_48)) (?v_17 (+ ?v_16 x_44)) (?v_142 (+ ?v_18 x_48)) (?v_19 (+ ?v_18 x_44)) (?v_156 (+ ?v_20 x_48)) (?v_21 (+ ?v_20 x_44))) (let ((?v_33 (+ ?v_26 x_44)) (?v_47 (+ ?v_40 x_44)) (?v_61 (+ ?v_54 x_44)) (?v_75 (+ ?v_68 x_44)) (?v_89 (+ ?v_82 x_44)) (?v_103 (+ ?v_96 x_44)) (?v_117 (+ ?v_110 x_44)) (?v_131 (+ ?v_124 x_44)) (?v_145 (+ ?v_138 x_44)) (?v_159 (+ ?v_152 x_44))) (and (and (and (and (and (and (and (and (and (and (and (and (and (and (and (and (and (and (and (and (and (and (and (and (and (and (and (and (and (and (and (and (and (and (and (and (and (and (and (and (and (and (and (and (and (and (and (and (and (and (and (and (and (and (and (and (and (and (and (and (and (and (and (and (and (and (and (and (and (and (and (and (and (and (and (and (and (and (and (and (and (and (and (and (and (and (and (and (and (and (and (and (and (and (and (and (and (and (and (and (and (and (and (and (and (and (and (and (and (and (and (and (and (and (and (and (and (and (and (and (and (and (and (and (and (and (and (and (and (and (and (and (and (and (and (and (and (and (and (and (and (and (and (and (and (and (and (> x_42 0) (> x_43 0)) (>= x_44 0)) (< x_44 x_42)) (< x_44 x_43)) (>= x_48 0)) (< x_48 x_42)) (< x_48 x_43)) (or (= x_36 x_37) (= x_38 x_39))) (or (= x_32 x_33) (= x_34 x_35))) (or (= x_28 x_29) (= x_30 x_31))) (or (= x_24 x_25) (= x_26 x_27))) (or (= x_20 x_21) (= x_22 x_23))) (or (= x_16 x_17) (= x_18 x_19))) (or (= x_12 x_13) (= x_14 x_15))) (or (= x_8 x_9) (= x_10 x_11))) (or (= x_4 x_5) (= x_6 x_7))) (or (= x_0 x_1) (= x_2 x_3))) (or (<= x_96 ?v_0) (<= (- (+ x_96 x_43) x_44) x_95))) (or (<= x_97 ?v_0) (<= (- (+ x_97 x_43) x_44) x_95))) (or (<= x_98 ?v_0) (<= (- (+ x_98 x_42) x_48) x_94))) (<= x_98 (+ ?v_0 x_48))) (<= x_97 ?v_1)) (<= x_96 ?v_1)) (<= ?v_0 x_94)) (<= ?v_0 x_95)) (or (<= x_91 ?v_2) (<= (- (+ x_91 x_43) x_44) x_90))) (or (<= x_92 ?v_2) (<= (- (+ x_92 x_43) x_44) x_90))) (or ?v_28 (<= (- (+ x_93 x_42) x_48) x_89))) (<= x_93 ?v_30)) (<= x_92 ?v_3)) (<= x_91 ?v_3)) (<= ?v_2 x_89)) (<= ?v_2 x_90)) (or (<= x_86 ?v_4) (<= (- (+ x_86 x_43) x_44) x_85))) (or (<= x_87 ?v_4) (<= (- (+ x_87 x_43) x_44) x_85))) (or ?v_42 (<= (- (+ x_88 x_42) x_48) x_84))) (<= x_88 ?v_44)) (<= x_87 ?v_5)) (<= x_86 ?v_5)) (<= ?v_4 x_84)) (<= ?v_4 x_85)) (or (<= x_81 ?v_6) (<= (- (+ x_81 x_43) x_44) x_80))) (or (<= x_82 ?v_6) (<= (- (+ x_82 x_43) x_44) x_80))) (or ?v_56 (<= (- (+ x_83 x_42) x_48) x_79))) (<= x_83 ?v_58)) (<= x_82 ?v_7)) (<= x_81 ?v_7)) (<= ?v_6 x_79)) (<= ?v_6 x_80)) (or (<= x_76 ?v_8) (<= (- (+ x_76 x_43) x_44) x_75))) (or (<= x_77 ?v_8) (<= (- (+ x_77 x_43) x_44) x_75))) (or ?v_70 (<= (- (+ x_78 x_42) x_48) x_74))) (<= x_78 ?v_72)) (<= x_77 ?v_9)) (<= x_76 ?v_9)) (<= ?v_8 x_74)) (<= ?v_8 x_75)) (or (<= x_71 ?v_10) (<= (- (+ x_71 x_43) x_44) x_70))) (or (<= x_72 ?v_10) (<= (- (+ x_72 x_43) x_44) x_70))) (or ?v_84 (<= (- (+ x_73 x_42) x_48) x_69))) (<= x_73 ?v_86)) (<= x_72 ?v_11)) (<= x_71 ?v_11)) (<= ?v_10 x_69)) (<= ?v_10 x_70)) (or (<= x_66 ?v_12) (<= (- (+ x_66 x_43) x_44) x_65))) (or (<= x_67 ?v_12) (<= (- (+ x_67 x_43) x_44) x_65))) (or ?v_98 (<= (- (+ x_68 x_42) x_48) x_64))) (<= x_68 ?v_100)) (<= x_67 ?v_13)) (<= x_66 ?v_13)) (<= ?v_12 x_64)) (<= ?v_12 x_65)) (or (<= x_61 ?v_14) (<= (- (+ x_61 x_43) x_44) x_60))) (or (<= x_62 ?v_14) (<= (- (+ x_62 x_43) x_44) x_60))) (or ?v_112 (<= (- (+ x_63 x_42) x_48) x_59))) (<= x_63 ?v_114)) (<= x_62 ?v_15)) (<= x_61 ?v_15)) (<= ?v_14 x_59)) (<= ?v_14 x_60)) (or (<= x_56 ?v_16) (<= (- (+ x_56 x_43) x_44) x_55))) (or (<= x_57 ?v_16) (<= (- (+ x_57 x_43) x_44) x_55))) (or ?v_126 (<= (- (+ x_58 x_42) x_48) x_54))) (<= x_58 ?v_128)) (<= x_57 ?v_17)) (<= x_56 ?v_17)) (<= ?v_16 x_54)) (<= ?v_16 x_55)) (or (<= x_51 ?v_18) (<= (- (+ x_51 x_43) x_44) x_50))) (or (<= x_52 ?v_18) (<= (- (+ x_52 x_43) x_44) x_50))) (or ?v_140 (<= (- (+ x_53 x_42) x_48) x_49))) (<= x_53 ?v_142)) (<= x_52 ?v_19)) (<= x_51 ?v_19)) (<= ?v_18 x_49)) (<= ?v_18 x_50)) (or (<= x_45 ?v_20) (<= (- (+ x_45 x_43) x_44) x_41))) (or (<= x_46 ?v_20) (<= (- (+ x_46 x_43) x_44) x_41))) (or ?v_154 (<= (- (+ x_47 x_42) x_48) x_40))) (<= x_47 ?v_156)) (<= x_46 ?v_21)) (<= x_45 ?v_21)) (<= ?v_20 x_40)) (<= ?v_20 x_41)) (or (and (and (and (and (and (and (and (and (and (= x_186 0) (= x_187 x_180)) (= ?v_2 x_89)) (<= (+ ?v_2 x_42) x_94)) (or ?v_24 (= x_188 x_36))) (= x_189 x_177)) (= x_190 x_178)) (= x_95 x_90)) ?v_22) ?v_23) (and (and (and (and (and (and (and (and (and (= x_186 1) (= x_190 x_177)) (= ?v_2 x_90)) (<= (+ ?v_2 x_43) x_95)) (or (and (and (= x_191 0) ?v_22) ?v_23) (and (and (= x_191 1) (= x_175 x_178)) (= x_184 (not x_175))))) (= x_192 x_180)) (= x_187 x_36)) (= x_193 x_38)) (= x_94 x_89)) ?v_24))) (or (or (and (and (and (= x_194 0) ?v_32) (or (not (<= x_91 ?v_26)) (= x_192 x_175))) ?v_27) (and (and (and (= x_194 1) ?v_25) (xor x_175 x_184)) (= x_96 ?v_33))) (and (and (and (= x_194 2) ?v_25) (= x_175 x_184)) ?v_27))) (or (or (and (and (and (= x_195 0) (not ?v_29)) (or (not ?v_28) (= x_189 x_37))) ?v_31) (and (and (and (= x_195 1) ?v_29) (xor x_37 x_188)) (= x_98 ?v_30))) (and (and (and (= x_195 2) ?v_29) (= x_37 x_188)) ?v_31))) (or (or (and (and (and (= x_196 0) ?v_32) (or (not (<= x_92 ?v_26)) (= x_193 x_39))) ?v_35) (and (and (and (= x_196 1) ?v_25) (not ?v_34)) (= x_97 ?v_33))) (and (and (and (= x_196 2) ?v_25) ?v_34) ?v_35))) (or (and (and (and (and (and (and (and (and (and (= x_176 0) (= x_36 x_171)) (= ?v_4 x_84)) (<= (+ ?v_4 x_42) x_89)) (or ?v_38 (= x_37 x_32))) (= x_177 x_168)) (= x_178 x_169)) (= x_90 x_85)) ?v_36) ?v_37) (and (and (and (and (and (and (and (and (and (= x_176 1) (= x_178 x_168)) (= ?v_4 x_85)) (<= (+ ?v_4 x_43) x_90)) (or (and (and (= x_179 0) ?v_36) ?v_37) (and (and (= x_179 1) (= x_166 x_169)) (= x_175 (not x_166))))) (= x_180 x_171)) (= x_36 x_32)) (= x_38 x_34)) (= x_89 x_84)) ?v_38))) (or (or (and (and (and (= x_181 0) ?v_46) (or (not (<= x_86 ?v_40)) (= x_180 x_166))) ?v_41) (and (and (and (= x_181 1) ?v_39) (xor x_166 x_175)) (= x_91 ?v_47))) (and (and (and (= x_181 2) ?v_39) (= x_166 x_175)) ?v_41))) (or (or (and (and (and (= x_182 0) (not ?v_43)) (or (not ?v_42) (= x_177 x_33))) ?v_45) (and (and (and (= x_182 1) ?v_43) (xor x_33 x_37)) (= x_93 ?v_44))) (and (and (and (= x_182 2) ?v_43) (= x_33 x_37)) ?v_45))) (or (or (and (and (and (= x_183 0) ?v_46) (or (not (<= x_87 ?v_40)) (= x_38 x_35))) ?v_49) (and (and (and (= x_183 1) ?v_39) (not ?v_48)) (= x_92 ?v_47))) (and (and (and (= x_183 2) ?v_39) ?v_48) ?v_49))) (or (and (and (and (and (and (and (and (and (and (= x_167 0) (= x_32 x_162)) (= ?v_6 x_79)) (<= (+ ?v_6 x_42) x_84)) (or ?v_52 (= x_33 x_28))) (= x_168 x_159)) (= x_169 x_160)) (= x_85 x_80)) ?v_50) ?v_51) (and (and (and (and (and (and (and (and (and (= x_167 1) (= x_169 x_159)) (= ?v_6 x_80)) (<= (+ ?v_6 x_43) x_85)) (or (and (and (= x_170 0) ?v_50) ?v_51) (and (and (= x_170 1) (= x_157 x_160)) (= x_166 (not x_157))))) (= x_171 x_162)) (= x_32 x_28)) (= x_34 x_30)) (= x_84 x_79)) ?v_52))) (or (or (and (and (and (= x_172 0) ?v_60) (or (not (<= x_81 ?v_54)) (= x_171 x_157))) ?v_55) (and (and (and (= x_172 1) ?v_53) (xor x_157 x_166)) (= x_86 ?v_61))) (and (and (and (= x_172 2) ?v_53) (= x_157 x_166)) ?v_55))) (or (or (and (and (and (= x_173 0) (not ?v_57)) (or (not ?v_56) (= x_168 x_29))) ?v_59) (and (and (and (= x_173 1) ?v_57) (xor x_29 x_33)) (= x_88 ?v_58))) (and (and (and (= x_173 2) ?v_57) (= x_29 x_33)) ?v_59))) (or (or (and (and (and (= x_174 0) ?v_60) (or (not (<= x_82 ?v_54)) (= x_34 x_31))) ?v_63) (and (and (and (= x_174 1) ?v_53) (not ?v_62)) (= x_87 ?v_61))) (and (and (and (= x_174 2) ?v_53) ?v_62) ?v_63))) (or (and (and (and (and (and (and (and (and (and (= x_158 0) (= x_28 x_153)) (= ?v_8 x_74)) (<= (+ ?v_8 x_42) x_79)) (or ?v_66 (= x_29 x_24))) (= x_159 x_150)) (= x_160 x_151)) (= x_80 x_75)) ?v_64) ?v_65) (and (and (and (and (and (and (and (and (and (= x_158 1) (= x_160 x_150)) (= ?v_8 x_75)) (<= (+ ?v_8 x_43) x_80)) (or (and (and (= x_161 0) ?v_64) ?v_65) (and (and (= x_161 1) (= x_148 x_151)) (= x_157 (not x_148))))) (= x_162 x_153)) (= x_28 x_24)) (= x_30 x_26)) (= x_79 x_74)) ?v_66))) (or (or (and (and (and (= x_163 0) ?v_74) (or (not (<= x_76 ?v_68)) (= x_162 x_148))) ?v_69) (and (and (and (= x_163 1) ?v_67) (xor x_148 x_157)) (= x_81 ?v_75))) (and (and (and (= x_163 2) ?v_67) (= x_148 x_157)) ?v_69))) (or (or (and (and (and (= x_164 0) (not ?v_71)) (or (not ?v_70) (= x_159 x_25))) ?v_73) (and (and (and (= x_164 1) ?v_71) (xor x_25 x_29)) (= x_83 ?v_72))) (and (and (and (= x_164 2) ?v_71) (= x_25 x_29)) ?v_73))) (or (or (and (and (and (= x_165 0) ?v_74) (or (not (<= x_77 ?v_68)) (= x_30 x_27))) ?v_77) (and (and (and (= x_165 1) ?v_67) (not ?v_76)) (= x_82 ?v_75))) (and (and (and (= x_165 2) ?v_67) ?v_76) ?v_77))) (or (and (and (and (and (and (and (and (and (and (= x_149 0) (= x_24 x_144)) (= ?v_10 x_69)) (<= (+ ?v_10 x_42) x_74)) (or ?v_80 (= x_25 x_20))) (= x_150 x_141)) (= x_151 x_142)) (= x_75 x_70)) ?v_78) ?v_79) (and (and (and (and (and (and (and (and (and (= x_149 1) (= x_151 x_141)) (= ?v_10 x_70)) (<= (+ ?v_10 x_43) x_75)) (or (and (and (= x_152 0) ?v_78) ?v_79) (and (and (= x_152 1) (= x_139 x_142)) (= x_148 (not x_139))))) (= x_153 x_144)) (= x_24 x_20)) (= x_26 x_22)) (= x_74 x_69)) ?v_80))) (or (or (and (and (and (= x_154 0) ?v_88) (or (not (<= x_71 ?v_82)) (= x_153 x_139))) ?v_83) (and (and (and (= x_154 1) ?v_81) (xor x_139 x_148)) (= x_76 ?v_89))) (and (and (and (= x_154 2) ?v_81) (= x_139 x_148)) ?v_83))) (or (or (and (and (and (= x_155 0) (not ?v_85)) (or (not ?v_84) (= x_150 x_21))) ?v_87) (and (and (and (= x_155 1) ?v_85) (xor x_21 x_25)) (= x_78 ?v_86))) (and (and (and (= x_155 2) ?v_85) (= x_21 x_25)) ?v_87))) (or (or (and (and (and (= x_156 0) ?v_88) (or (not (<= x_72 ?v_82)) (= x_26 x_23))) ?v_91) (and (and (and (= x_156 1) ?v_81) (not ?v_90)) (= x_77 ?v_89))) (and (and (and (= x_156 2) ?v_81) ?v_90) ?v_91))) (or (and (and (and (and (and (and (and (and (and (= x_140 0) (= x_20 x_135)) (= ?v_12 x_64)) (<= (+ ?v_12 x_42) x_69)) (or ?v_94 (= x_21 x_16))) (= x_141 x_132)) (= x_142 x_133)) (= x_70 x_65)) ?v_92) ?v_93) (and (and (and (and (and (and (and (and (and (= x_140 1) (= x_142 x_132)) (= ?v_12 x_65)) (<= (+ ?v_12 x_43) x_70)) (or (and (and (= x_143 0) ?v_92) ?v_93) (and (and (= x_143 1) (= x_130 x_133)) (= x_139 (not x_130))))) (= x_144 x_135)) (= x_20 x_16)) (= x_22 x_18)) (= x_69 x_64)) ?v_94))) (or (or (and (and (and (= x_145 0) ?v_102) (or (not (<= x_66 ?v_96)) (= x_144 x_130))) ?v_97) (and (and (and (= x_145 1) ?v_95) (xor x_130 x_139)) (= x_71 ?v_103))) (and (and (and (= x_145 2) ?v_95) (= x_130 x_139)) ?v_97))) (or (or (and (and (and (= x_146 0) (not ?v_99)) (or (not ?v_98) (= x_141 x_17))) ?v_101) (and (and (and (= x_146 1) ?v_99) (xor x_17 x_21)) (= x_73 ?v_100))) (and (and (and (= x_146 2) ?v_99) (= x_17 x_21)) ?v_101))) (or (or (and (and (and (= x_147 0) ?v_102) (or (not (<= x_67 ?v_96)) (= x_22 x_19))) ?v_105) (and (and (and (= x_147 1) ?v_95) (not ?v_104)) (= x_72 ?v_103))) (and (and (and (= x_147 2) ?v_95) ?v_104) ?v_105))) (or (and (and (and (and (and (and (and (and (and (= x_131 0) (= x_16 x_126)) (= ?v_14 x_59)) (<= (+ ?v_14 x_42) x_64)) (or ?v_108 (= x_17 x_12))) (= x_132 x_123)) (= x_133 x_124)) (= x_65 x_60)) ?v_106) ?v_107) (and (and (and (and (and (and (and (and (and (= x_131 1) (= x_133 x_123)) (= ?v_14 x_60)) (<= (+ ?v_14 x_43) x_65)) (or (and (and (= x_134 0) ?v_106) ?v_107) (and (and (= x_134 1) (= x_121 x_124)) (= x_130 (not x_121))))) (= x_135 x_126)) (= x_16 x_12)) (= x_18 x_14)) (= x_64 x_59)) ?v_108))) (or (or (and (and (and (= x_136 0) ?v_116) (or (not (<= x_61 ?v_110)) (= x_135 x_121))) ?v_111) (and (and (and (= x_136 1) ?v_109) (xor x_121 x_130)) (= x_66 ?v_117))) (and (and (and (= x_136 2) ?v_109) (= x_121 x_130)) ?v_111))) (or (or (and (and (and (= x_137 0) (not ?v_113)) (or (not ?v_112) (= x_132 x_13))) ?v_115) (and (and (and (= x_137 1) ?v_113) (xor x_13 x_17)) (= x_68 ?v_114))) (and (and (and (= x_137 2) ?v_113) (= x_13 x_17)) ?v_115))) (or (or (and (and (and (= x_138 0) ?v_116) (or (not (<= x_62 ?v_110)) (= x_18 x_15))) ?v_119) (and (and (and (= x_138 1) ?v_109) (not ?v_118)) (= x_67 ?v_117))) (and (and (and (= x_138 2) ?v_109) ?v_118) ?v_119))) (or (and (and (and (and (and (and (and (and (and (= x_122 0) (= x_12 x_117)) (= ?v_16 x_54)) (<= (+ ?v_16 x_42) x_59)) (or ?v_122 (= x_13 x_8))) (= x_123 x_114)) (= x_124 x_115)) (= x_60 x_55)) ?v_120) ?v_121) (and (and (and (and (and (and (and (and (and (= x_122 1) (= x_124 x_114)) (= ?v_16 x_55)) (<= (+ ?v_16 x_43) x_60)) (or (and (and (= x_125 0) ?v_120) ?v_121) (and (and (= x_125 1) (= x_112 x_115)) (= x_121 (not x_112))))) (= x_126 x_117)) (= x_12 x_8)) (= x_14 x_10)) (= x_59 x_54)) ?v_122))) (or (or (and (and (and (= x_127 0) ?v_130) (or (not (<= x_56 ?v_124)) (= x_126 x_112))) ?v_125) (and (and (and (= x_127 1) ?v_123) (xor x_112 x_121)) (= x_61 ?v_131))) (and (and (and (= x_127 2) ?v_123) (= x_112 x_121)) ?v_125))) (or (or (and (and (and (= x_128 0) (not ?v_127)) (or (not ?v_126) (= x_123 x_9))) ?v_129) (and (and (and (= x_128 1) ?v_127) (xor x_9 x_13)) (= x_63 ?v_128))) (and (and (and (= x_128 2) ?v_127) (= x_9 x_13)) ?v_129))) (or (or (and (and (and (= x_129 0) ?v_130) (or (not (<= x_57 ?v_124)) (= x_14 x_11))) ?v_133) (and (and (and (= x_129 1) ?v_123) (not ?v_132)) (= x_62 ?v_131))) (and (and (and (= x_129 2) ?v_123) ?v_132) ?v_133))) (or (and (and (and (and (and (and (and (and (and (= x_113 0) (= x_8 x_108)) (= ?v_18 x_49)) (<= (+ ?v_18 x_42) x_54)) (or ?v_136 (= x_9 x_4))) (= x_114 x_103)) (= x_115 x_105)) (= x_55 x_50)) ?v_134) ?v_135) (and (and (and (and (and (and (and (and (and (= x_113 1) (= x_115 x_103)) (= ?v_18 x_50)) (<= (+ ?v_18 x_43) x_55)) (or (and (and (= x_116 0) ?v_134) ?v_135) (and (and (= x_116 1) (= x_99 x_105)) (= x_112 (not x_99))))) (= x_117 x_108)) (= x_8 x_4)) (= x_10 x_6)) (= x_54 x_49)) ?v_136))) (or (or (and (and (and (= x_118 0) ?v_144) (or (not (<= x_51 ?v_138)) (= x_117 x_99))) ?v_139) (and (and (and (= x_118 1) ?v_137) (xor x_99 x_112)) (= x_56 ?v_145))) (and (and (and (= x_118 2) ?v_137) (= x_99 x_112)) ?v_139))) (or (or (and (and (and (= x_119 0) (not ?v_141)) (or (not ?v_140) (= x_114 x_5))) ?v_143) (and (and (and (= x_119 1) ?v_141) (xor x_5 x_9)) (= x_58 ?v_142))) (and (and (and (= x_119 2) ?v_141) (= x_5 x_9)) ?v_143))) (or (or (and (and (and (= x_120 0) ?v_144) (or (not (<= x_52 ?v_138)) (= x_10 x_7))) ?v_147) (and (and (and (= x_120 1) ?v_137) (not ?v_146)) (= x_57 ?v_145))) (and (and (and (= x_120 2) ?v_137) ?v_146) ?v_147))) (or (and (and (and (and (and (and (and (and (and (= x_101 0) (= x_4 x_102)) (= ?v_20 x_40)) (<= (+ ?v_20 x_42) x_49)) (or ?v_150 (= x_5 x_0))) (= x_103 x_104)) (= x_105 x_106)) (= x_50 x_41)) ?v_148) ?v_149) (and (and (and (and (and (and (and (and (and (= x_101 1) (= x_105 x_104)) (= ?v_20 x_41)) (<= (+ ?v_20 x_43) x_50)) (or (and (and (= x_107 0) ?v_148) ?v_149) (and (and (= x_107 1) (= x_100 x_106)) (= x_99 (not x_100))))) (= x_108 x_102)) (= x_4 x_0)) (= x_6 x_2)) (= x_49 x_40)) ?v_150))) (or (or (and (and (and (= x_109 0) ?v_158) (or (not (<= x_45 ?v_152)) (= x_108 x_100))) ?v_153) (and (and (and (= x_109 1) ?v_151) (xor x_100 x_99)) (= x_51 ?v_159))) (and (and (and (= x_109 2) ?v_151) (= x_100 x_99)) ?v_153))) (or (or (and (and (and (= x_110 0) (not ?v_155)) (or (not ?v_154) (= x_103 x_1))) ?v_157) (and (and (and (= x_110 1) ?v_155) (xor x_1 x_5)) (= x_53 ?v_156))) (and (and (and (= x_110 2) ?v_155) (= x_1 x_5)) ?v_157))) (or (or (and (and (and (= x_111 0) ?v_158) (or (not (<= x_46 ?v_152)) (= x_6 x_3))) ?v_161) (and (and (and (= x_111 1) ?v_151) (not ?v_160)) (= x_52 ?v_159))) (and (and (and (= x_111 2) ?v_151) ?v_160) ?v_161))) (xor x_187 x_188)) (not (= x_193 x_185))))))))))))))))
(check-sat)
(exit)
